B=6;
D=1;
P=10;
S=10;
demands = [4 5 1 1 4 2 5 5 1 1 ];
capacities = [6 7 3 10 5 1 10 1 6 6 ];
dist_start = [8 10 10 2 6 4 7 8 1 4 ];
dist = [2 2 7 6 1 9 7 1 7 5 4 9 5 10 5 2 3 8 1 4 5 1 3 7 6 8 5 4 9 8 1 10 1 9 8 1 8 6 3 4 2 7 2 6 6 8 7 1 6 9 4 10 9 9 8 7 6 4 2 6 4 4 8 4 2 7 7 1 2 9 4 5 7 7 10 3 7 8 5 2 6 8 3 7 8 1 5 4 4 8 1 7 1 8 3 4 4 9 5 7 ];
